c [MSE2022] -- begin -- [MSE2022]
0.00/0.00	c
0.00/0.00	c NuWLS based on TT-Open-WBO-Inc:	 an Anytime MaxSAT Solver --- based on Glucose4.1 (core version)
0.00/0.00	c Version:	 MaxSAT Evaluation 2021
0.00/0.00	c Author of NuWLS:	 Yi Chu, Xiang He
0.00/0.00	c Author of TT-Open-WBO-Inc:	 Alexander Nadel
0.00/0.00	c Authors of the baseline solver Open-WBO-Inc:	 Saurabh Joshi, Prateek Kumar, Ruben Martins, Sukrut Rao
0.00/0.00	c WARNING: for repeatability, setting FPU to use double precision
0.00/0.00	c |                                                                                                       |
0.00/0.00	c ========================================[ Problem Statistics ]===========================================
0.00/0.00	c |                                                                                                       |
0.00/0.00	c |  Problem Format:             MaxSAT                                                                   |
0.00/0.00	c |  Problem Type:           Unweighted                                                                   |
0.00/0.00	c |  Number of variables:          1171                                                                   |
0.00/0.00	c |  Number of hard clauses:          0                                                                   |
0.00/0.00	c |  Number of soft clauses:       3252                                                                   |
0.00/0.00	c |  Number of cardinality:           0                                                                   |
0.00/0.00	c |  Number of PB :                   0                                                                   |
0.00/0.00	c |  Parse time:                   0.00 s                                                                 |
0.00/0.00	c |                                                                                                       |
0.00/0.00	c | best-alg-selector overriden target_vars_bump_val to 0, since it hadn't been set by the user |
0.00/0.00	c | best-alg-selector overriden ms_model_per_sec_thr to 2, since it hadn't been set by the user |
0.00/0.00	c | best-alg-selector overriden ms_mutation_classes to 0, since it hadn't been set by the user |
0.00/0.00	c | best-alg-selector overriden ms_chrono to 100, since it hadn't been set by the user |
0.00/0.00	c ==========================================[ Solver Settings ]============================================
0.00/0.00	c |                                                                                                       |
0.00/0.00	c |  Algorithm:                     OBV                                                                   |
0.00/0.00	c |  Cardinality Encoding:       Modulo Totalizer                                                         |
0.00/0.00	c |  Limit number conflicts:       1000                                                                   |
0.00/0.00	c |  Limit number iterations: 2147483647                                                                   |
0.00/0.00	c |  Global limit number conflicts:   F                                                                   |
0.00/0.00	c |                                                                                                       |
0.00/0.00	c Mrs. Beaver incomplete stage
0.00/0.00	o 307
0.00/0.00	c total_lit_count 7675
0.00/0.00	c before build neighbor
0.00/0.00	c build instime is 0
0.00/0.00	c using neighbor 
0.00/0.00	c build NuWLS instance done!
0.00/0.00	c changing to NuWLS solver!!!
0.00/0.00	c problem weighted = 0
0.00/0.00	o 307
0.00/0.00	o 304
0.00/0.00	o 301
0.00/0.00	o 298
0.00/0.00	o 296
0.00/0.00	o 294
0.00/0.00	o 292
0.00/0.00	o 290
0.00/0.00	o 288
0.00/0.00	o 286
0.00/0.00	o 284
0.00/0.00	o 282
0.00/0.00	o 280
0.00/0.00	o 278
0.00/0.01	o 276
0.00/0.01	o 274
0.00/0.01	o 272
0.00/0.01	o 270
0.00/0.01	o 268
0.00/0.01	o 266
0.00/0.01	o 264
0.00/0.01	o 262
0.00/0.01	o 261
0.00/0.01	o 260
0.00/0.01	o 259
0.00/0.01	o 258
0.00/0.01	o 257
0.00/0.01	o 256
0.00/0.01	o 255
0.00/0.01	o 254
0.00/0.01	o 252
0.00/0.01	o 250
0.00/0.01	o 249
0.00/0.01	o 248
0.00/0.01	o 247
0.00/0.01	o 246
0.00/0.01	o 245
0.00/0.01	o 244
0.00/0.01	o 243
0.00/0.01	o 242
0.00/0.01	o 241
0.00/0.01	o 240
0.00/0.01	o 239
0.00/0.01	o 238
0.00/0.01	o 237
0.00/0.01	o 236
0.00/0.01	o 235
0.00/0.01	o 234
0.00/0.01	o 233
0.00/0.01	o 232
0.00/0.01	o 231
0.00/0.01	o 230
0.00/0.01	o 229
0.00/0.01	o 228
0.00/0.01	o 227
0.00/0.01	o 226
0.00/0.01	o 225
0.00/0.01	o 224
0.00/0.01	o 223
0.00/0.01	o 222
0.00/0.01	o 221
0.00/0.01	o 220
0.00/0.01	o 219
0.00/0.01	o 218
0.00/0.01	o 217
0.00/0.01	o 216
0.00/0.01	o 215
0.00/0.01	o 214
0.00/0.01	o 213
0.00/0.01	o 212
0.00/0.01	o 210
0.00/0.01	o 209
0.00/0.01	o 208
0.00/0.01	o 207
0.00/0.01	o 206
0.00/0.01	o 205
0.00/0.01	o 204
0.00/0.01	o 203
0.00/0.01	o 202
0.00/0.01	o 201
0.00/0.01	o 200
0.00/0.01	o 199
0.00/0.01	o 198
0.00/0.01	o 197
0.00/0.01	o 196
0.00/0.01	o 195
0.00/0.01	o 194
0.00/0.01	o 193
0.00/0.01	o 192
0.00/0.01	o 191
0.00/0.01	o 190
0.00/0.01	o 189
0.00/0.01	o 188
0.00/0.01	o 187
0.00/0.01	o 186
0.00/0.01	o 185
0.00/0.01	o 184
0.00/0.01	o 183
0.00/0.01	o 182
0.00/0.01	o 181
0.00/0.01	o 180
0.00/0.01	o 179
0.00/0.01	o 178
0.00/0.01	o 177
0.00/0.01	o 176
0.00/0.01	o 175
0.00/0.01	o 174
0.00/0.01	o 173
0.00/0.01	o 172
0.00/0.01	o 171
0.00/0.01	o 170
0.00/0.01	o 169
0.00/0.01	o 168
0.00/0.01	o 167
0.00/0.01	o 166
0.00/0.01	o 165
0.00/0.01	o 164
0.00/0.01	o 163
0.00/0.01	o 162
0.00/0.01	o 161
0.00/0.01	o 160
0.00/0.01	o 159
0.00/0.01	o 158
0.00/0.01	o 157
0.00/0.01	o 156
0.00/0.01	o 155
0.00/0.01	o 154
0.00/0.01	o 153
0.00/0.01	o 152
0.00/0.01	o 151
0.00/0.01	o 150
0.00/0.03	o 149
0.00/0.03	o 148
0.00/0.03	o 147
0.00/0.03	o 146
0.00/0.03	o 145
0.00/0.03	o 144
0.00/0.03	o 143
0.09/0.09	s SATISFIABLE
0.09/0.09	o 143 
0.09/0.09	v 1001011010110110001011110100111000110000101001001111111101111010010000101111000101110001110001010110011010100100011100001011000110100011011110000001110101100100111110110000101000001010010100000110011111010011011101101100100000000110000100000111101100000010100110100000111111110110111000110101000010101101001110011111010111011010011010111101011100000100100010000011100011101100011011101001010000101111110000111110110010000110000001110101100101001010001101001111101101110110011011000111011011001000000000000011110111010000100101101010100101110001011100111101001011001111100001010101110111001010111001101110111011101001001011011111001101001101101010111010111110100110010011110011110010110010000101110010011111011010110001000100010110010101001000010100011001110011010110111101110000111100101010010110101111110101111010101000010110010110010100100011000100111010101001111100111101000100100111001001010011001100010000010011001100110011010110101110100101110001111010100001010110100110100111010011011100111100110101000111010010001100110101011110001100101100110010110000010110110011100011010100000100000100111101000000011100101000011110110111110101000011001101101100110010010101010
c [MSE2022] -- end -- [MSE2022]
